NAME : portcgen-22-4
COMMENT : portcgen N=22, seed=4
TYPE : TSP
DIMENSION : 22
EDGE_WEIGHT_TYPE : EUC_2D
NODE_COORD_SECTION
1 52600 -321443
2 -99993 16454
3 174652 -484105
4 75823 -182365
5 -171798 -105788
6 -109318 -211550
7 5535 27415
8 162921 -207971
9 149474 -272486
10 97834 189950
11 330117 353535
12 5563 14897
13 -323561 -203961
14 -192106 -54578
15 173618 -97793
16 -184658 -121616
17 250756 -118423
18 -184454 -104584
19 -10994 -246522
20 -318163 186390
21 35093 50690
22 122282 216076
